NAME: GRASP_13_0
TYPE: TSP
COMMENT: line_13_0
DIMENSION: 13
EDGE_WEIGHT_TYPE: EUC_2D
NODE_COORD_SECTION
1 0.0 36.0
2 0.0 41.0
3 0.0 86.0
4 0.0 88.0
5 0.0 64.0
6 0.0 71.0
7 0.0 91.0
8 0.0 55.0
9 0.0 18.0
10 0.0 13.0
11 0.0 102.0
12 0.0 9.0
13 0.0 73.0
